100
128
44
26
50
7
6
61
2
4
5
11
20
18
32
55
40
59
52
21
8
53
48
32
61
38
48
34
28
44
54
29
17
49
30
48
42
46
40
9
22
32
36
19
19
53
31
24
35
30
63
29
7
21
10
28
32
21
43
64
20
17
47
64
53
3
19
52
34
2
50
61
25
57
27
43
3
61
63
52
27
48
40
52
35
3
58
29
41
39
37
32
60
38
40
61
64
50
36
62
3
62